benchmarks/2018.NIA-sorin/_source/cube2/cube2.desugared.sol
z == 6*n + 6 && y == 3*n*(n+1) + 1 && x == n*n*n
